NAME: random_10_9
TYPE: TSP
COMMENT: random_10_9
DIMENSION: 10
EDGE_WEIGHT_TYPE: EUC_2D
NODE_COORD_SECTION
1 435 12
2 314 98
3 94 470
4 446 171
5 296 76
6 351 295
7 411 406
8 443 90
9 63 386
10 230 27
